GLPSOL--GLPK LP/MIP Solver 5.0
Parameter(s) specified in the command line:
 --lp ../modeles/10_224.lp --log 10_224.log
Reading problem data from '../modeles/10_224.lp'...
2281 rows, 4500 columns, 15710 non-zeros
2240 integer variables, all of which are binary
6797 lines were read
GLPK Integer Optimizer 5.0
2281 rows, 4500 columns, 15710 non-zeros
2240 integer variables, all of which are binary
Preprocessing...
2220 constraint coefficient(s) were reduced
2281 rows, 4490 columns, 15700 non-zeros
2240 integer variables, all of which are binary
Scaling...
 A: min|aij| =  3.189e-04  max|aij| =  4.000e+00  ratio =  1.254e+04
GM: min|aij| =  9.449e-02  max|aij| =  1.058e+01  ratio =  1.120e+02
EQ: min|aij| =  8.929e-03  max|aij| =  1.000e+00  ratio =  1.120e+02
2N: min|aij| =  5.102e-03  max|aij| =  1.696e+00  ratio =  3.324e+02
Constructing initial basis...
Size of triangular part is 2281
Solving LP relaxation...
GLPK Simplex Optimizer 5.0
2281 rows, 4490 columns, 15700 non-zeros
      0: obj =   2.000000000e+01 inf =   2.910e+02 (21)
    189: obj =   2.349001316e-01 inf =   0.000e+00 (0)
*   478: obj =  -3.161224490e+00 inf =   3.105e-14 (0)
OPTIMAL LP SOLUTION FOUND
Integer optimization begins...
Long-step dual simplex will be used
+   478: mip =     not found yet >=              -inf        (1; 0)
+   635: >>>>>  -3.160204082e+00 >=  -3.161224490e+00 < 0.1% (127; 0)
+   636: >>>>>  -3.161224490e+00 >=  -3.161224490e+00 < 0.1% (5; 243)
+   636: mip =  -3.161224490e+00 >=     tree is empty   0.0% (0; 253)
INTEGER OPTIMAL SOLUTION FOUND
Time used:   0.4 secs
Memory used: 6.6 Mb (6906084 bytes)
